/*
DATA SET 2: 
3 esami, 50 studenti, 2 aule, 2 giorni. 
*/
ESAMI = {AI,IC,CN};
S = 52;
A = 2;
G = 2;

durata = [4,3,4];
capienza = [54, 53];

prenotazioni = [|1,0,0
                |1,0,1
                |1,0,1
                |1,0,0
                |1,0,1
                |1,0,1
                |1,0,0
                |1,0,1
                |1,0,1
                |1,0,0
                |1,0,1
                |1,0,1
                |1,0,0
                |1,0,1
                |1,0,1
                |1,0,0
                |1,0,1
                |1,0,1
                |1,0,0
                |1,0,1
                |1,0,1
                |1,0,0
                |1,0,1
                |1,0,1
                |1,0,0
                |1,0,1
                |1,0,1
                |1,0,0
                |1,0,1
                |1,0,1
                |1,0,0
                |1,0,1
                |1,0,1
                |1,0,0
                |1,0,1
                |1,0,1
                |1,0,0
                |1,0,1
                |1,0,1
                |1,0,0
                |1,0,1
                |1,0,1
                |1,0,0
                |1,0,1
                |1,0,1
                |1,0,0
                |1,0,1
                |1,0,1
                |1,0,0
                |1,0,1
                |1,0,1
                |1,1,0|];
